c File: flat50_3_0.col
c
c SOURCE: Joseph Culberson (joe@cs.ualberta.ca)
c DESCRIPTION: Quasi-random coloring problem
c              generated with flatness = 0
c                             probability = 0.139
c                             known coloring = 3
c                             random seed = 1687
c              Creation Date:  Tue Jun  9 12:15:24 1998
c Maximum degree = 8 Minimum degree = 1
c p edge 50 115
c cnf created by edge2cnf
p cnf 150 545
-1 -2 0
-1 -3 0
-2 -3 0
1 2 3 0
-4 -5 0
-4 -6 0
-5 -6 0
4 5 6 0
-7 -8 0
-7 -9 0
-8 -9 0
7 8 9 0
-10 -11 0
-10 -12 0
-11 -12 0
10 11 12 0
-13 -14 0
-13 -15 0
-14 -15 0
13 14 15 0
-16 -17 0
-16 -18 0
-17 -18 0
16 17 18 0
-19 -20 0
-19 -21 0
-20 -21 0
19 20 21 0
-22 -23 0
-22 -24 0
-23 -24 0
22 23 24 0
-25 -26 0
-25 -27 0
-26 -27 0
25 26 27 0
-28 -29 0
-28 -30 0
-29 -30 0
28 29 30 0
-31 -32 0
-31 -33 0
-32 -33 0
31 32 33 0
-34 -35 0
-34 -36 0
-35 -36 0
34 35 36 0
-37 -38 0
-37 -39 0
-38 -39 0
37 38 39 0
-40 -41 0
-40 -42 0
-41 -42 0
40 41 42 0
-43 -44 0
-43 -45 0
-44 -45 0
43 44 45 0
-46 -47 0
-46 -48 0
-47 -48 0
46 47 48 0
-49 -50 0
-49 -51 0
-50 -51 0
49 50 51 0
-52 -53 0
-52 -54 0
-53 -54 0
52 53 54 0
-55 -56 0
-55 -57 0
-56 -57 0
55 56 57 0
-58 -59 0
-58 -60 0
-59 -60 0
58 59 60 0
-61 -62 0
-61 -63 0
-62 -63 0
61 62 63 0
-64 -65 0
-64 -66 0
-65 -66 0
64 65 66 0
-67 -68 0
-67 -69 0
-68 -69 0
67 68 69 0
-70 -71 0
-70 -72 0
-71 -72 0
70 71 72 0
-73 -74 0
-73 -75 0
-74 -75 0
73 74 75 0
-76 -77 0
-76 -78 0
-77 -78 0
76 77 78 0
-79 -80 0
-79 -81 0
-80 -81 0
79 80 81 0
-82 -83 0
-82 -84 0
-83 -84 0
82 83 84 0
-85 -86 0
-85 -87 0
-86 -87 0
85 86 87 0
-88 -89 0
-88 -90 0
-89 -90 0
88 89 90 0
-91 -92 0
-91 -93 0
-92 -93 0
91 92 93 0
-94 -95 0
-94 -96 0
-95 -96 0
94 95 96 0
-97 -98 0
-97 -99 0
-98 -99 0
97 98 99 0
-100 -101 0
-100 -102 0
-101 -102 0
100 101 102 0
-103 -104 0
-103 -105 0
-104 -105 0
103 104 105 0
-106 -107 0
-106 -108 0
-107 -108 0
106 107 108 0
-109 -110 0
-109 -111 0
-110 -111 0
109 110 111 0
-112 -113 0
-112 -114 0
-113 -114 0
112 113 114 0
-115 -116 0
-115 -117 0
-116 -117 0
115 116 117 0
-118 -119 0
-118 -120 0
-119 -120 0
118 119 120 0
-121 -122 0
-121 -123 0
-122 -123 0
121 122 123 0
-124 -125 0
-124 -126 0
-125 -126 0
124 125 126 0
-127 -128 0
-127 -129 0
-128 -129 0
127 128 129 0
-130 -131 0
-130 -132 0
-131 -132 0
130 131 132 0
-133 -134 0
-133 -135 0
-134 -135 0
133 134 135 0
-136 -137 0
-136 -138 0
-137 -138 0
136 137 138 0
-139 -140 0
-139 -141 0
-140 -141 0
139 140 141 0
-142 -143 0
-142 -144 0
-143 -144 0
142 143 144 0
-145 -146 0
-145 -147 0
-146 -147 0
145 146 147 0
-148 -149 0
-148 -150 0
-149 -150 0
148 149 150 0
-58 -1 0
-59 -2 0
-60 -3 0
-73 -1 0
-74 -2 0
-75 -3 0
-85 -1 0
-86 -2 0
-87 -3 0
-133 -1 0
-134 -2 0
-135 -3 0
-67 -4 0
-68 -5 0
-69 -6 0
-106 -4 0
-107 -5 0
-108 -6 0
-133 -4 0
-134 -5 0
-135 -6 0
-100 -7 0
-101 -8 0
-102 -9 0
-64 -10 0
-65 -11 0
-66 -12 0
-67 -10 0
-68 -11 0
-69 -12 0
-82 -10 0
-83 -11 0
-84 -12 0
-100 -10 0
-101 -11 0
-102 -12 0
-109 -10 0
-110 -11 0
-111 -12 0
-118 -10 0
-119 -11 0
-120 -12 0
-139 -10 0
-140 -11 0
-141 -12 0
-61 -13 0
-62 -14 0
-63 -15 0
-73 -13 0
-74 -14 0
-75 -15 0
-97 -13 0
-98 -14 0
-99 -15 0
-103 -13 0
-104 -14 0
-105 -15 0
-109 -13 0
-110 -14 0
-111 -15 0
-127 -16 0
-128 -17 0
-129 -18 0
-142 -16 0
-143 -17 0
-144 -18 0
-55 -19 0
-56 -20 0
-57 -21 0
-58 -19 0
-59 -20 0
-60 -21 0
-94 -19 0
-95 -20 0
-96 -21 0
-100 -19 0
-101 -20 0
-102 -21 0
-115 -19 0
-116 -20 0
-117 -21 0
-118 -19 0
-119 -20 0
-120 -21 0
-121 -19 0
-122 -20 0
-123 -21 0
-127 -19 0
-128 -20 0
-129 -21 0
-64 -22 0
-65 -23 0
-66 -24 0
-88 -22 0
-89 -23 0
-90 -24 0
-112 -22 0
-113 -23 0
-114 -24 0
-127 -22 0
-128 -23 0
-129 -24 0
-130 -22 0
-131 -23 0
-132 -24 0
-70 -25 0
-71 -26 0
-72 -27 0
-82 -25 0
-83 -26 0
-84 -27 0
-106 -25 0
-107 -26 0
-108 -27 0
-109 -25 0
-110 -26 0
-111 -27 0
-115 -25 0
-116 -26 0
-117 -27 0
-148 -25 0
-149 -26 0
-150 -27 0
-52 -28 0
-53 -29 0
-54 -30 0
-85 -28 0
-86 -29 0
-87 -30 0
-106 -28 0
-107 -29 0
-108 -30 0
-73 -31 0
-74 -32 0
-75 -33 0
-82 -31 0
-83 -32 0
-84 -33 0
-85 -31 0
-86 -32 0
-87 -33 0
-88 -31 0
-89 -32 0
-90 -33 0
-103 -31 0
-104 -32 0
-105 -33 0
-118 -31 0
-119 -32 0
-120 -33 0
-130 -31 0
-131 -32 0
-132 -33 0
-139 -31 0
-140 -32 0
-141 -33 0
-79 -34 0
-80 -35 0
-81 -36 0
-94 -34 0
-95 -35 0
-96 -36 0
-127 -34 0
-128 -35 0
-129 -36 0
-52 -37 0
-53 -38 0
-54 -39 0
-61 -37 0
-62 -38 0
-63 -39 0
-100 -37 0
-101 -38 0
-102 -39 0
-118 -37 0
-119 -38 0
-120 -39 0
-145 -37 0
-146 -38 0
-147 -39 0
-55 -40 0
-56 -41 0
-57 -42 0
-61 -40 0
-62 -41 0
-63 -42 0
-94 -40 0
-95 -41 0
-96 -42 0
-109 -40 0
-110 -41 0
-111 -42 0
-136 -40 0
-137 -41 0
-138 -42 0
-148 -40 0
-149 -41 0
-150 -42 0
-61 -43 0
-62 -44 0
-63 -45 0
-121 -43 0
-122 -44 0
-123 -45 0
-130 -43 0
-131 -44 0
-132 -45 0
-79 -46 0
-80 -47 0
-81 -48 0
-115 -46 0
-116 -47 0
-117 -48 0
-121 -46 0
-122 -47 0
-123 -48 0
-145 -46 0
-146 -47 0
-147 -48 0
-52 -49 0
-53 -50 0
-54 -51 0
-73 -49 0
-74 -50 0
-75 -51 0
-82 -49 0
-83 -50 0
-84 -51 0
-85 -49 0
-86 -50 0
-87 -51 0
-106 -49 0
-107 -50 0
-108 -51 0
-103 -52 0
-104 -53 0
-105 -54 0
-118 -52 0
-119 -53 0
-120 -54 0
-124 -52 0
-125 -53 0
-126 -54 0
-130 -52 0
-131 -53 0
-132 -54 0
-103 -55 0
-104 -56 0
-105 -57 0
-133 -55 0
-134 -56 0
-135 -57 0
-136 -55 0
-137 -56 0
-138 -57 0
-127 -58 0
-128 -59 0
-129 -60 0
-109 -61 0
-110 -62 0
-111 -63 0
-106 -64 0
-107 -65 0
-108 -66 0
-115 -70 0
-116 -71 0
-117 -72 0
-124 -70 0
-125 -71 0
-126 -72 0
-130 -70 0
-131 -71 0
-132 -72 0
-139 -70 0
-140 -71 0
-141 -72 0
-118 -73 0
-119 -74 0
-120 -75 0
-127 -76 0
-128 -77 0
-129 -78 0
-103 -79 0
-104 -80 0
-105 -81 0
-118 -79 0
-119 -80 0
-120 -81 0
-121 -79 0
-122 -80 0
-123 -81 0
-136 -79 0
-137 -80 0
-138 -81 0
-106 -82 0
-107 -83 0
-108 -84 0
-112 -82 0
-113 -83 0
-114 -84 0
-118 -82 0
-119 -83 0
-120 -84 0
-142 -82 0
-143 -83 0
-144 -84 0
-136 -85 0
-137 -86 0
-138 -87 0
-109 -88 0
-110 -89 0
-111 -90 0
-133 -88 0
-134 -89 0
-135 -90 0
-139 -88 0
-140 -89 0
-141 -90 0
-148 -88 0
-149 -89 0
-150 -90 0
-127 -91 0
-128 -92 0
-129 -93 0
-109 -94 0
-110 -95 0
-111 -96 0
-127 -94 0
-128 -95 0
-129 -96 0
-130 -94 0
-131 -95 0
-132 -96 0
-133 -94 0
-134 -95 0
-135 -96 0
-121 -97 0
-122 -98 0
-123 -99 0
-148 -97 0
-149 -98 0
-150 -99 0
-130 -100 0
-131 -101 0
-132 -102 0
